




































































































35 55 60 58 63 41 
62 51 59 33 69 30 
42 4 56 12 9 26 
23 14 76 0 1 
29 6 74 11 75 16 
22 10 17 2 47 3 
71 34 28 72 70 66 38 
73 64 48 68 39 
19 8 36 57 24 
21 43 65 50 54 
44 7 25 37 20 
31 18 53 13 40 5 
46 52 49 
27 45 32 15 61 67 
